
(set-logic ALL) 

(declare-datatype MyList ((Nil) (Cons (head Real) (tail MyList)) )) 
(declare-fun l0 () MyList) 
(declare-fun l1 () MyList) 
(declare-fun l2 () MyList) 
(declare-fun l3 () MyList) 
(declare-fun i0 () Real) 
(declare-fun i1 () Real) 
(assert (or (= l1 Nil) (= l3 l3) (= l2 Nil)) )
(assert (is-Nil Nil) )
(assert (= l3 Nil) )
(assert (is-Nil l2) )
(assert (or (= l3 l2) (= l2 l2) (= l1 l1) (= l1 Nil)) )
(assert (is-Cons l3) )
(assert (is-Cons Nil) )
(assert (= l2 l3) )
(check-sat)
